20 20
10 8 1
5 6 1
2 3 1
10 10 1
8 8 1
2 2 1
6 2 1
6 10 1
9 2 1
8 5 1
9 3 1
1 2 1
5 9 1
8 7 1
8 2 1
8 3 1
3 2 1
2 4 1
6 8 1
3 6 1
30 30 
30 30 
30 30 
30 30 
30 30 
30 30 
30 30 
30 30 
30 30 
30 30 
30 30 
30 30 
30 30 
30 30 
30 30 
30 30 
30 30 
30 30 
30 30 
30 30 
